
Gurobi 9.0.1 (linux64) logging started Fri May  1 00:34:10 2020

Gurobi Optimizer version 9.0.1 build v9.0.1rc0 (linux64)
Optimize a model with 1184 rows, 842 columns and 4340 nonzeros
Model fingerprint: 0xb5556015
Variable types: 0 continuous, 842 integer (810 binary)
Coefficient statistics:
  Matrix range     [1e+00, 8e+00]
  Objective range  [2e+00, 1e+02]
  Bounds range     [1e+00, 1e+00]
  RHS range        [1e+00, 9e+00]

User MIP start produced solution with objective 752 (0.00s)
Loaded user MIP start with objective 752

Presolve removed 480 rows and 316 columns
Presolve time: 0.01s
Presolved: 704 rows, 526 columns, 2912 nonzeros
Variable types: 0 continuous, 526 integer (498 binary)

Root relaxation: objective 5.638750e+02, 572 iterations, 0.02 seconds

    Nodes    |    Current Node    |     Objective Bounds      |     Work
 Expl Unexpl |  Obj  Depth IntInf | Incumbent    BestBd   Gap | It/Node Time

     0     0  563.87500    0   32  752.00000  563.87500  25.0%     -    0s
     0     0  593.00000    0   58  752.00000  593.00000  21.1%     -    0s
     0     0  593.00000    0   58  752.00000  593.00000  21.1%     -    0s
     0     0  594.37500    0   65  752.00000  594.37500  21.0%     -    0s
     0     0  594.37500    0   44  752.00000  594.37500  21.0%     -    0s
     0     0  603.66667    0  103  752.00000  603.66667  19.7%     -    0s
     0     0  603.66667    0   94  752.00000  603.66667  19.7%     -    0s
     0     0  603.75000    0   96  752.00000  603.75000  19.7%     -    0s
     0     0  603.75000    0   97  752.00000  603.75000  19.7%     -    0s
     0     0  603.75000    0   98  752.00000  603.75000  19.7%     -    0s
     0     0  603.75000    0   98  752.00000  603.75000  19.7%     -    0s
     0     0  603.75000    0   69  752.00000  603.75000  19.7%     -    0s
     0     0  603.75000    0   69  752.00000  603.75000  19.7%     -    0s
     0     0  603.75000    0   56  752.00000  603.75000  19.7%     -    0s
     0     0  603.75000    0   80  752.00000  603.75000  19.7%     -    0s
     0     0  603.75000    0   65  752.00000  603.75000  19.7%     -    0s
     0     0  603.75000    0   74  752.00000  603.75000  19.7%     -    0s
     0     0  603.75000    0   75  752.00000  603.75000  19.7%     -    0s
     0     0  603.75000    0   63  752.00000  603.75000  19.7%     -    0s
     0     2  603.75000    0   63  752.00000  603.75000  19.7%     -    0s
H   81    70                     731.0000000  604.00000  17.4%  47.2    0s
   543   390  604.33333   13  252  731.00000  604.33333  17.3%  68.5    5s
H  623   401                     635.0000000  604.34747  4.83%  68.5    5s
H  688   377                     631.0000000  604.86550  4.14%  72.2    6s
H  705   348                     626.0000000  605.00948  3.35%  74.4    7s
   997   388  616.87506   23  140  626.00000  606.00000  3.19%  84.0   10s
H 1031   346                     624.0000000  606.03216  2.88%  84.3   10s
H 1085   292                     622.0000000  606.35258  2.52%  84.5   10s
  1499   292  618.36838   28   81  622.00000  608.95746  2.10%  92.5   15s
  2130   405     cutoff   20       622.00000  612.30735  1.56%  91.0   20s
  3376   497  616.99709   24  150  622.00000  615.17085  1.10%  74.2   25s
  4627   414  617.75817   27  120  622.00000  616.71761  0.85%  66.9   30s
  5949    36     cutoff   29       622.00000  620.23480  0.28%  61.9   35s

Cutting planes:
  Learned: 4
  Gomory: 9
  Cover: 23
  Implied bound: 59
  MIR: 15
  Flow cover: 66
  Inf proof: 20
  Zero half: 21
  RLT: 84
  Relax-and-lift: 6

Explored 5986 nodes (372784 simplex iterations) in 35.09 seconds
Thread count was 1 (of 40 available processors)

Solution count 7: 622 624 626 ... 752

Optimal solution found (tolerance 1.00e-04)
Best objective 6.220000000000e+02, best bound 6.220000000000e+02, gap 0.0000%

User-callback calls 22417, time in user-callback 0.02 sec
